(set-info :smt-lib-version 2.6)
(set-logic QF_S)
(set-info :source |
Generated by: Shaoke Cui
Generated on: 2025-04-10
Application: Using String Solvers to solve string matching problems
Target solver: cvc5, OSTRICH, Z3, Z3alpha, Z3-noodler
Benchmarks for substring matching problem, which needs to determine whether the pattern string exists in the text string.
|)
(set-info :license "https://creativecommons.org/licenses/by/4.0/")
(set-info :category "crafted")
(set-info :status unsat)
(declare-fun a1() String)
(declare-fun a2() String)
(declare-fun a3() String)
(declare-fun a4() String)
(declare-fun a5() String)
(declare-fun a6() String)
(assert (= a1 "2222222222222222222222222222222222222222222222222222222222222222222222222222222222222222222222222222222222222222222222222222222222222222222222222222222222222222222222222"))
(assert (= a2 "2222222222222222222222222222222222222222222222222222222222222222222222222222222222222222222222222222222222222222222222222222222222222222222222222222222222222222222222222"))
(assert (= a3 "2222222222222222222222222222222222222222222222222222222222222222222222222222222222222222222222222222222222222222222222222222222222222222222222222222222222222222222222222"))
(assert (= a4 "2222222222222222222222222222222222222222222222222222222222222222222222222222222222222222222222222222222222222222222222222222222222222222222222222222222222222222222222"))
(assert (= a5 "2222222222222222222222222222222222222222222222222222222222222222222222222222222222222222222222222222222222222222222222222222222222222222222222222222222222222222222222"))
(assert (= a6 "2222222222222222222222222222222222222222222222222222222222222222222222222222222222222222222222222222222222222222222222222222222222222222222222222222222222222222222222"))
(assert (str.contains (str.++ a2 a3 a1 a2 a3 a3 a3 a1 a3 a3 a1 a3 a1 a1 a1 a2 a3 a2 a1 a3 a2 a1 a2 a1 a2 a1 a3 a3 a3 a1 a2 a3 a2 a3 a2 a3 a1 a2 a3 a1 a3 a3 a1 a1 a2 a2 a2 a2 a2 a2 a2 a3 a1 a1 a2 a3 a3 a3 a3 a1 a1 a1 a1 a1 a1 a3 a1 a1 a2 a3 a3 a2 a1 a2 a1 a3 a1 a3 a2 a1 a2 a1 a1 a1 a2 a2 a2 a1 a3 a1 a3 a3 a2 a2 a1 a3 a3 a2 a2 a2 a1 a2 a1 a3 a3 a3 a1 a1 a1 a3 a3 a2 a1 a2 a3 a1 a3 a3 a2 a2 a1 a3 a1 a3 a3 a2 a2 a2 a2 a1 a3 a3 a1 a2 a3 a2 a1 a3 a1 a1 a3 a2 a2 a3 a1 a3 a2 a1 a2 a2 a2 a1 a1 a1 a2 a1 a2 a1 a3 a2 a2 a3 a2 a2 a2 a1 a1 a2 a1 a3 a2 a2 a1 a1 a2 a2 a1 a3 a2 a1 a2 a1 a3 a1 a3 a1 a2 a1 a1 a2 a2 a1 a3 a1 a3 a3 a1 a3 a1 a3 a2 a3 a1 a2 a3 a2 a1 a3 a2 a2 a2 a3 a3 a1 a2 a3 a1 a3 a2 a3 a1 a3 a1 a1 a3 a3 a3 a2 a3 a1 a2 a1 a2 a2 a1 a1 a3 a2 a1 a2 a2 a1 a1 a2 a3 a3 a1 a2 a1 a2 a3 a3 a2 a1 a3 a2 a2 a2 a1 a3 a2 a2 a2 a1 a2 a2 a2 a1 a1 a1 a1 a2 a1 a1 a1 a3 a3 a3 a3 a1 a2 a2 a2 a1 a1 a3 a2 a2 a1 a2 a1 a2 a2 a1 a3 a2 a1 a1 a1 a3 a3 a3 a3 a3 a1 a2 a3 a1 a3 a1 a1 a3 a1 a2 a2 a3 a2 a3 a3 a1 a3 a2 a2 a3 a3 a1 a3 a1 a1 a3 a2 a1 a1 a1 a3 a1 a3 a3 a3 a2 a2 a3 a3 a3 a1 a2 a2 a2 a1 a2 a2 a1 a1 a3 a3 a2 a1 a2 a3 a2 a2 a3 a3 a3 a2 a1 a3 a3 a2 a2 a2 a2 a2 a3 a3 a3 a2 a2 a3 a3 a3 a3 a3 a2 a3 a3 a3 a2 a2 a2 a2 a2 a2 a1 a2 a2 a3 a3 a3 a3 a1 a3 a3 a1 a1 a3 a1 a2 a2 a3 a3 a2 a3 a3 a3 a3 a2 a1 a2 a1 a2 a2 a1 a1 a1 a3 a3 a2 a3 a1 a1 a2 a1 a1 a1 a3 a1 a1 a1 a3 a3 a3 a1 a3 a1 a1 a1 a2 a1 a2 a3 a1 a2 a1 a2 a1 a2 a1 a2 a2 a1 a2 a1 a1 a3 a1 a3 a3 a1 a1 a2 a2 a3 a1 a1 a1 a3 a3 a3 a1 a3 a1 a1 a1 a1 a3 a3 a2 a1 a2 a1 a1 a2 a1 a3 a2 a2 a3 a1 a2 a2 a1 a1 a2 a1 a2 a2 a1 a2 a3 a2 a2 a2 a2 a2 a2 a3 a2 a1 a3 a2 a3 a1 a3 a1 a2 a3 a2 a1 a1 a3 a2 a3 a2 a1 a2 a3 a3 a2 a3 a1 a3 a1 a1 a2 a2 a1 a1 a3 a2 a1 a2 a3 a3 a1 a3 a1 a1 a2 a3 a3 a1 a2 a2 a1 a2 a1 a2 a1 a3 a2 a1 a2 a3 a3 a2 a2 a3 a2 a3 a3 a2 a3 a3 a2 a2 a2 a3 a3 a2 a1 a1 a1 a1 a3 a1 a3 a3 a3 a3 a3 a1 a1 a1 a2 a2 a1 a2 a3 a2 a3 a1 a2 a2 a2 a2 a1 a3 a3 a2 a3 a2 a2 a1 a1 a1 a2 a3 a2 a1 a3 a3 a1 a3 a2 a3 a1 a1 a2 a3 a3 a1 a2 a1 a3 a2 a1 a3 a1 a2 a1 a1 a1 a3 a2 a1 a3 a3 a1 a3 a1 a2 a3 a1 a3 a2 a3 a1 a3 a2 a1 a3 a2 a2 a2 a1 a1 a3 a2 a1 a2 a3 a3 a2 a1 a3 a2 a3 a2 a3 a1 a2 a2 a3 a1 a1 a3 a2 a2 a3 a2 a3 a2 a1 a2 a1 a1 a1 a3 a2 a3 a1 a3 a1 a3 a1 a3 a2 a2 a3 a2 a3 a3 a3 a2 a2 a3 a1 a3 a1 a1 a2 a1 a3 a3 a1 a3 a1 a2 a2 a3 a1 a2 a2 a3 a3 a3 a3 a2 a2 a3 a3 a3 a2 a2 a3 a3 a2 a3 a1 a2 a3 a2 a2 a1 a2 a3 a2 a1 a1 a1 a3 a2 a3 a3 a3 a1 a3 a1 a2 a3 a3 a1 a3 a2 a1 a2 a1 a1 a3 a1 a2 a2 a2 a3 a2 a3 a3 a2 a3 a3 a3 a2 a2 a3 a3 a2 a3 a2 a1 a3 a1 a3 a2 a3 a3 a2 a2 a2 a1 a1 a2 a2 a3 a1 a1 a2 a2 a1 a2 a1 a1 a1 a2 a2 a3 a3 a2 a3 a1 a3 a1 a3 a3 a3 a2 a3 a1 a3 a2 a2 a2 a3 a3 a3 a1 a1 a2 a1 a3 a1 a3 a3 a2 a3 a2 a3 a1 a2 a3 a1 a3 a2 a1 a1 a2 a1 a2 a2 a1 a2 a2 a2 a2 a3 a3 a3 a2 a1 a1 a2 a2 a1 a1 a3 a1 a1 a2 a3 a3 a2 a2 a3 a3 a2 a2 a3 a1 a1 a3 a3 a3 a1 a1 a3 a3 a2 a2 a3 a3 a2 a2 a1 a3 a1 a1 a1 a2 a2 a1 a2 a3 a1 a3 a1 a3 a2 a1 a1 a1 a2 a1 a3 a2 a3 a3 a1 a1 a2 a1 a3 a1 a2 a3 a1 a3 a2 a2 a3 a1 a1 a1 a1 a2 a1 a1 a3 a1 a2 a3 a3 a3 a3 a3 a2 a2 a2 a3 a2 a1 a2 a3 a1 a2 a1 a2 a1 a1 a3 a1 a1 a1 a2 a2 a3 a3 a3 a3 a3 a1 a3 a1 a2 a3 a3 a2 a3 a3 a1 a3 a1 a3 a2 a3 a1 a2 a3 a3 a3 a2 a2 a1 a2 a3 a2 a1 a1 a3 a3 a2 a3 a3 a2 a1 a2 a2 a2 a1 a2 a3 a3 a1 a2 a1 a2 a3 a2 a2 a2 a3 a3 a1 a3 a1 a3 a2 a1 a3 a1 a1 a3 a3 a3 a3 a3 a3 a2 a3 a2 a2 a2 a1 a3 a3 a2 a2 a1 a2 a2 a2 a1 a2 a3 a2 a3 a1 a2 a2 a2 a1 a2 a1 a2 a1 a1 a2 a1 a2 a1 a2 a3 a3 a2 a3 a3 a1 a3 a2 a2 a3 a3 a2 a3 a3 a1 a3 a1 a3 a1 a1 a2 a2 a3 a3 a1 a1 a2 a3 a3 a3 a2 a3 a3 a3 a2 a3 a2 a2 a2 a3 a2 a3 a1 a3 a2 a1 a1 a3 a1 a2 a3 a3 a3 a3 a3 a3 a2 a2 a3 a2 a2 a3 a2 a3 a1 a2 a3 a1 a1 a1 a2 a2 a1 a1 a2 a1 a2 a2 a2 a1 a3 a1 a2 a2 a3 a2 a1 a2 a1 a2 a1 a3 a1 a2 a2 a3 a2 a3 a3 a3 a3 a2 a3 a2 a1 a2 a3 a3 a2 a1 a2 a2 a1 a1 a3 a2 a1 a2 a2 a2 a2 a1 a3 a2 a1 a3 a3 a3 a3 a3 a1 a3 a2 a3 a2 a3 a1 a3 a3 a3 a2 a1 a2 a2 a3 a1 a1 a1 a3 a2 a2 a1 a1 a3 a1 a1 a2 a1 a1 a1 a3 a2 a1 a2 a3 a1 a2 a3 a1 a2 a2 a3 a1 a3 a3 a2 a3 a2 a2 a1 a1 a3 a1 a1 a3 a3 a3 a3 a2 a2 a2 a3 a3 a2 a2 a1 a2 a2 a1 a1 a1 a3 a1 a2 a1 a2 a1 a1 a1 a3 a1 a1 a1 a3 a3 a1 a1 a2 a3 a1 a1 a2 a1 a2 a2 a1 a2 a1 a3 a2 a2 a3 a3 a3 a1 a1 a3 a1 a1 a1 a2 a2 a3 a1 a1 a1 a1 a2 a1 a3 a2 a2 a1 a1 a3 a2 a3 a1 a1 a3 a3 a3 a1 a3 a1 a1 a2 a1 a2 a3 a3 a2 a2 a3 a1 a2 a3 a1 a2 a1 a2 a1 a3 a1 a2 a1 a1 a1 a2 a1 a3 a1 a1 a2 a1 a2 a3 a1 a3 a2 a3 a2 a2 a1 a3 a2 a1 a1 a1 a3 a1 a3 a1 a1 a1 a1 a1 a3 a3 a1 a2 a2 a2 a3 a1 a3 a1 a1 a3 a3 a2 a2 a1 a2 a3 a1 a3 a1 a1 a1 a3 a1 a2 a3 a1 a2 a1 a1 a3 a2 a2 a3 a1 a1 a2 a2 a3 a1 a2 a2 a3 a2 a2 a1 a1 a3 a2 a3 a3 a1 a1 a1 a2 a3 a1 a1 a2 a1 a3 a1 a1 a1 a3 a3 a2 a1 a1 a1 a3 a2  "0" a5 a4 a4 a4 a5 a6 a4 a6 a6 a4 a5 a5 a4 a4 a5 a5 a6 a5 a5 a5 a6 a4 a4 a5 a6 a4 a5 a5 a4 a6 a4 a5 a5 a4 a6 a6 a5 a6 a5 a5 a5 a4 a6 a4 a5 a5 a4 a5 a6 a4 a6 a4 a5 a4 a6 a5 a5 a4 a4 a5 a5 a4 a5 a6 a5 a4 a4 a4 a6 a5 a4 a5 a5 a5 a4 a6 a4 a4 a5 a5 a5 a5 a4 a6 a4 a6 a5 a5 a6 a6 a6 a6 a6 a5 a4 a6 a4 a5 a4 a4 a6 a4 a5 a4 a5 a6 a5 a5 a4 a5 a4 a6 a5 a6 a4 a4 a6 a6 a6 a6 a5 a6 a5 a6 a5 a5 a5 a5 a4 a5 a5 a5 a4 a6 a4 a4 a5 a5 a6 a4 a5 a6 a6 a4 a6 a5 a5 a5 a4 a6 a4 a4 a6 a5 a5 a5 a6 a6 a5 a4 a4 a4 a5 a6 a6 a6 a4 a4 a5 a6 a4 a5 a4 a6 a4 a5 a6 a6 a5 a4 a5 a5 a6 a6 a6 a6 a4 a5 a5 a4 a5 a4 a5 a6 a4 a4 a5 a4 a6 a6 a6 a5 a4 a4 a6 a6 a6 a5 a4 a6 a5 a4 a6 a5 a6 a6 a4 a5 a6 ) (str.++ a4 a6 a6 a6 a6 a5 a6 a6 a5 a5 a4 a4 a5 a6 a4 a4 a6 a4 a4 a5 a5 a6 a6 a6 a5 a5 a4 a5 a6 a6 a5 a5 a5 a5 a5 a6 a5 a5 a6 a4 a4 a4 a4 a4 a5 a5 a5 a4 a5 a4 a5 a4 a6 a4 a6 a4 a5 a5 a6 a4 a5 a5 a6 a4 a4 a5 a5 a6 a5 a5 a5 a6 a4 a4 a4 a4 a4 a5 a5 a4 a6 a5 a5 a6 a5 a5 a5 a5 a4 a4 a6 a6 a6 a4 a5 a6 a4 a5 a6 a5 a5 a4 a6 a6 a5 a4 a4 a5 a4 a6 a5 a6 a4 a5 a4 a4 a6 a6 a6 a6 a4 a5 a6 a6 a5 a4 a6 a5 a6 a5 a6 a5 a4 a6 a5 a6 a5 a6 a6 a6 a5 a5 a6 a6 a6 a5 a6 a5 a5 a6 a4 a5 a6 a4 a4 a6 a6 a4 a5 a6 a5 a4 a6 a4 a5 a6 a4 a6 a4 a5 a5 a4 a5 a6 a6 a5 a6 a5 a5 a4 a5 a4 a5 a5 a5 a5 a5 a5 a6 a4 a6 a4 a4 a5 a5 a6 a6 a4 a6 a6 a5 a5 a6 a5 a6 a6 a5 a6 a6 a5 a5 a6 a5 a4 a5 a4  "1")))
(check-sat)
(exit)
